 &input
   fildyn='tinisn.dyn', zasr='simple', flfrc='tinisn222.fc'
 /

